Results/Experiment 2 Results/New Benchmark/output_p1_0.25_p2_0.00_n_40_09.lp
clingo version 5.4.0
Reading from tempSRTISolver.lp ...
Solving...
Answer: 1
matched(6,2) matched(5,4) matched(3,7) matched(1,8) matched(9,10) matched(12,11) matched(15,14) matched(16,18) matched(13,19) matched(21,24) matched(25,28) matched(31,30) matched(32,29) matched(38,34) matched(39,35) matched(33,36) matched(34,38) matched(35,39) matched(37,40) matched(36,33) matched(7,3) matched(2,6) matched(8,1) matched(11,12) matched(14,15) matched(20,17) matched(17,20) matched(19,13) matched(22,23) matched(28,25) matched(26,27) matched(24,21) matched(30,31) matched(29,32) matched(4,5) matched(18,16) matched(27,26) matched(40,37) matched(10,9) matched(23,22)
Optimization: 395
Answer: 2
matched(6,2) matched(5,4) matched(3,7) matched(1,8) matched(11,10) matched(10,11) matched(15,14) matched(16,18) matched(13,19) matched(21,24) matched(25,28) matched(31,30) matched(32,29) matched(38,34) matched(39,35) matched(33,36) matched(34,38) matched(35,39) matched(37,40) matched(36,33) matched(7,3) matched(2,6) matched(8,1) matched(9,12) matched(14,15) matched(20,17) matched(17,20) matched(19,13) matched(22,23) matched(28,25) matched(26,27) matched(24,21) matched(30,31) matched(29,32) matched(4,5) matched(18,16) matched(27,26) matched(40,37) matched(12,9) matched(23,22)
Optimization: 391
Answer: 3
matched(6,2) matched(5,4) matched(3,7) matched(1,8) matched(11,10) matched(10,11) matched(16,14) matched(19,18) matched(18,19) matched(21,24) matched(25,28) matched(31,30) matched(32,29) matched(38,34) matched(39,35) matched(33,36) matched(34,38) matched(35,39) matched(37,40) matched(36,33) matched(7,3) matched(2,6) matched(8,1) matched(9,12) matched(17,15) matched(15,17) matched(13,20) matched(20,13) matched(22,23) matched(28,25) matched(26,27) matched(24,21) matched(30,31) matched(29,32) matched(4,5) matched(14,16) matched(27,26) matched(40,37) matched(12,9) matched(23,22)
Optimization: 382
Answer: 4
matched(6,2) matched(5,4) matched(3,7) matched(1,8) matched(9,10) matched(12,11) matched(18,14) matched(14,18) matched(15,19) matched(21,24) matched(25,28) matched(31,30) matched(32,29) matched(38,34) matched(39,35) matched(37,36) matched(34,38) matched(35,39) matched(33,40) matched(40,33) matched(7,3) matched(2,6) matched(8,1) matched(11,12) matched(19,15) matched(20,17) matched(17,20) matched(16,13) matched(22,23) matched(28,25) matched(26,27) matched(24,21) matched(30,31) matched(29,32) matched(4,5) matched(13,16) matched(27,26) matched(36,37) matched(10,9) matched(23,22)
Optimization: 381
Answer: 5
matched(6,2) matched(5,4) matched(3,7) matched(1,8) matched(9,10) matched(12,11) matched(15,14) matched(19,18) matched(18,19) matched(21,24) matched(25,28) matched(31,30) matched(32,29) matched(38,34) matched(39,35) matched(37,36) matched(34,38) matched(35,39) matched(33,40) matched(40,33) matched(7,3) matched(2,6) matched(8,1) matched(11,12) matched(14,15) matched(20,17) matched(17,20) matched(16,13) matched(22,23) matched(28,25) matched(26,27) matched(24,21) matched(30,31) matched(29,32) matched(4,5) matched(13,16) matched(27,26) matched(36,37) matched(10,9) matched(23,22)
Optimization: 375
Answer: 6
matched(6,2) matched(5,4) matched(3,7) matched(1,8) matched(9,10) matched(12,11) matched(16,14) matched(19,18) matched(18,19) matched(21,24) matched(25,28) matched(31,30) matched(32,29) matched(38,34) matched(39,35) matched(37,36) matched(34,38) matched(35,39) matched(33,40) matched(40,33) matched(7,3) matched(2,6) matched(8,1) matched(11,12) matched(17,15) matched(15,17) matched(13,20) matched(20,13) matched(22,23) matched(28,25) matched(26,27) matched(24,21) matched(30,31) matched(29,32) matched(4,5) matched(14,16) matched(27,26) matched(36,37) matched(10,9) matched(23,22)
Optimization: 372
Answer: 7
matched(6,2) matched(5,4) matched(3,7) matched(1,8) matched(11,10) matched(10,11) matched(15,14) matched(19,18) matched(18,19) matched(21,24) matched(25,28) matched(31,30) matched(32,29) matched(38,34) matched(39,35) matched(37,36) matched(34,38) matched(35,39) matched(33,40) matched(40,33) matched(7,3) matched(2,6) matched(8,1) matched(9,12) matched(14,15) matched(20,17) matched(17,20) matched(16,13) matched(22,23) matched(28,25) matched(26,27) matched(24,21) matched(30,31) matched(29,32) matched(4,5) matched(13,16) matched(27,26) matched(36,37) matched(12,9) matched(23,22)
Optimization: 371
Answer: 8
matched(6,2) matched(5,4) matched(3,7) matched(1,8) matched(11,10) matched(10,11) matched(16,14) matched(19,18) matched(18,19) matched(21,24) matched(25,28) matched(31,30) matched(32,29) matched(38,34) matched(39,35) matched(37,36) matched(34,38) matched(35,39) matched(33,40) matched(40,33) matched(7,3) matched(2,6) matched(8,1) matched(9,12) matched(17,15) matched(15,17) matched(13,20) matched(20,13) matched(22,23) matched(28,25) matched(26,27) matched(24,21) matched(30,31) matched(29,32) matched(4,5) matched(14,16) matched(27,26) matched(36,37) matched(12,9) matched(23,22)
Optimization: 368
Answer: 9
matched(4,2) matched(2,4) matched(6,7) matched(1,8) matched(11,10) matched(10,11) matched(16,14) matched(19,18) matched(18,19) matched(25,24) matched(21,28) matched(31,30) matched(32,29) matched(36,34) matched(37,35) matched(34,36) matched(39,38) matched(38,39) matched(33,40) matched(40,33) matched(5,3) matched(7,6) matched(8,1) matched(9,12) matched(17,15) matched(15,17) matched(13,20) matched(20,13) matched(27,23) matched(24,25) matched(23,27) matched(28,21) matched(30,31) matched(29,32) matched(3,5) matched(14,16) matched(22,26) matched(35,37) matched(12,9) matched(26,22)
Optimization: 365
Answer: 10
matched(4,2) matched(2,4) matched(6,7) matched(1,8) matched(11,10) matched(10,11) matched(16,14) matched(19,18) matched(18,19) matched(25,24) matched(21,28) matched(31,30) matched(32,29) matched(35,34) matched(34,35) matched(37,36) matched(39,38) matched(38,39) matched(33,40) matched(40,33) matched(5,3) matched(7,6) matched(8,1) matched(9,12) matched(17,15) matched(15,17) matched(13,20) matched(20,13) matched(27,23) matched(24,25) matched(23,27) matched(28,21) matched(30,31) matched(29,32) matched(3,5) matched(14,16) matched(22,26) matched(36,37) matched(12,9) matched(26,22)
Optimization: 363
Answer: 11
matched(4,2) matched(2,4) matched(6,7) matched(1,8) matched(9,10) matched(12,11) matched(16,14) matched(19,18) matched(18,19) matched(21,24) matched(25,28) matched(31,30) matched(32,29) matched(36,34) matched(37,35) matched(34,36) matched(39,38) matched(38,39) matched(33,40) matched(40,33) matched(5,3) matched(7,6) matched(8,1) matched(11,12) matched(17,15) matched(15,17) matched(13,20) matched(20,13) matched(22,23) matched(28,25) matched(26,27) matched(24,21) matched(30,31) matched(29,32) matched(3,5) matched(14,16) matched(27,26) matched(35,37) matched(10,9) matched(23,22)
Optimization: 362
Answer: 12
matched(4,2) matched(2,4) matched(6,7) matched(1,8) matched(9,10) matched(12,11) matched(16,14) matched(19,18) matched(18,19) matched(21,24) matched(25,28) matched(31,30) matched(32,29) matched(35,34) matched(34,35) matched(37,36) matched(39,38) matched(38,39) matched(33,40) matched(40,33) matched(5,3) matched(7,6) matched(8,1) matched(11,12) matched(17,15) matched(15,17) matched(13,20) matched(20,13) matched(22,23) matched(28,25) matched(26,27) matched(24,21) matched(30,31) matched(29,32) matched(3,5) matched(14,16) matched(27,26) matched(36,37) matched(10,9) matched(23,22)
Optimization: 360
Answer: 13
matched(4,2) matched(2,4) matched(6,7) matched(1,8) matched(11,10) matched(10,11) matched(16,14) matched(19,18) matched(18,19) matched(25,24) matched(21,28) matched(31,30) matched(32,29) matched(35,34) matched(34,35) matched(37,36) matched(39,38) matched(38,39) matched(33,40) matched(40,33) matched(5,3) matched(7,6) matched(8,1) matched(9,12) matched(17,15) matched(15,17) matched(13,20) matched(20,13) matched(22,23) matched(24,25) matched(26,27) matched(28,21) matched(30,31) matched(29,32) matched(3,5) matched(14,16) matched(27,26) matched(36,37) matched(12,9) matched(23,22)
Optimization: 355
OPTIMUM FOUND

Models       : 13
  Optimum    : yes
Optimization : 355
Calls        : 1
Time         : 0.246s (Solving: 0.05s 1st Model: 0.00s Unsat: 0.05s)
CPU Time     : 0.246s
